12
-1 37 13 10 15 91 73 75 88 78 3 59 
34 -1 85 5 56 95 98 70 44 9 91 98 
96 79 -1 96 55 87 77 83 48 67 73 2 
44 10 29 -1 54 36 44 76 28 63 73 23 
13 54 72 36 -1 25 73 89 77 93 47 68 
66 90 41 52 53 -1 37 98 56 85 45 3 
11 46 21 93 32 29 -1 0 5 65 1 60 
34 1 41 87 19 2 73 -1 45 18 4 0 
44 22 67 80 18 82 0 12 -1 26 23 79 
21 61 69 53 71 95 54 20 43 -1 34 67 
10 8 74 46 75 24 55 43 31 13 -1 51 
59 48 73 45 47 30 14 98 57 57 9 -1 
